NAME: random_n13_1
COMMENT: Explicit integer matrix TSP
TYPE: TSP
DIMENSION: 13
EDGE_WEIGHT_TYPE: EXPLICIT
EDGE_WEIGHT_FORMAT: FULL_MATRIX
EDGE_WEIGHT_SECTION
    0   34   38   88   88   24   84   30   86   19   29   83   94
   34    0   24   17   10   69   28   96   38    4   56   17   88
   38   24    0   78    2   36   19   11   34   58   96   56   18
   88   17   78    0   33   46   30   63   97   71   73   55   86
   88   10    2   33    0   47   56   82   41   84   16   45   77
   24   69   36   46   47    0   82   34   89   58   71   79   96
   84   28   19   30   56   82    0   18   57   87   94   57   69
   30   96   11   63   82   34   18    0   23   38   26   23   67
   86   38   34   97   41   89   57   23    0   46   33   48   59
   19    4   58   71   84   58   87   38   46    0   34   78   36
   29   56   96   73   16   71   94   26   33   34    0   51   17
   83   17   56   55   45   79   57   23   48   78   51    0   74
   94   88   18   86   77   96   69   67   59   36   17   74    0
EOF
