NAME: random_n10_1
COMMENT: Explicit integer matrix TSP
TYPE: TSP
DIMENSION: 10
EDGE_WEIGHT_TYPE: EXPLICIT
EDGE_WEIGHT_FORMAT: FULL_MATRIX
EDGE_WEIGHT_SECTION
    0   74    5   55   62   74    2   27   60   63
   74    0   36   84   21    5   67   63   42   10
    5   36    0   32   96   47    6   54   18   78
   55   84   32    0   46   49   54   37   87   34
   62   21   96   46    0   59   23   88   39   85
   74    5   47   49   59    0   47   18   59   99
    2   67    6   54   23   47    0   31   57   79
   27   63   54   37   88   18   31    0   49    6
   60   42   18   87   39   59   57   49    0   75
   63   10   78   34   85   99   79    6   75    0
EOF
