NAME: random_n13_0
COMMENT: Explicit integer matrix TSP
TYPE: TSP
DIMENSION: 13
EDGE_WEIGHT_TYPE: EXPLICIT
EDGE_WEIGHT_FORMAT: FULL_MATRIX
EDGE_WEIGHT_SECTION
    0   50   98   54    6   34   66   63   52   39   62   46   75
   50    0   28   65   18   37   18   97   13   80   33   69   91
   98   28    0   78   19   40   13   94   10   88   43   61   72
   54   65   78    0   13   46   56   41   79   82   27   71   62
    6   18   19   13    0   57   67   34    8   71    2   12   93
   34   37   40   46   57    0   52   91   86   81    1   79   64
   66   18   13   56   67   52    0   43   32   94   42   91    9
   63   97   94   41   34   91   43    0   25   73   29   31   19
   52   13   10   79    8   86   32   25    0   70   58   12   11
   39   80   88   82   71   81   94   73   70    0   41   66   63
   62   33   43   27    2    1   42   29   58   41    0   14   39
   46   69   61   71   12   79   91   31   12   66   14    0   71
   75   91   72   62   93   64    9   19   11   63   39   71    0
EOF
