NAME: random_n14_4
COMMENT: Explicit integer matrix TSP
TYPE: TSP
DIMENSION: 14
EDGE_WEIGHT_TYPE: EXPLICIT
EDGE_WEIGHT_FORMAT: FULL_MATRIX
EDGE_WEIGHT_SECTION
    0   72    2   61   84   67   39   99   70   54   91   30   13   48
   72    0   80    9   44   83   33   74   27    3   98   74   27    7
    2   80    0   75   72   18   50   88    4   20   50   32   24   13
   61    9   75    0   79   26   72   28   57   24   92   50   17   86
   84   44   72   79    0    9  100   28   68   87   24   25   23   18
   67   83   18   26    9    0   71   64   95   82   47    1   85   87
   39   33   50   72  100   71    0    5   75   48    1   73   87    1
   99   74   88   28   28   64    5    0   68   71   13   79   64   50
   70   27    4   57   68   95   75   68    0   87   47   61   48   25
   54    3   20   24   87   82   48   71   87    0   66   60   71   64
   91   98   50   92   24   47    1   13   47   66    0   88    6   88
   30   74   32   50   25    1   73   79   61   60   88    0   28   24
   13   27   24   17   23   85   87   64   48   71    6   28    0   44
   48    7   13   86   18   87    1   50   25   64   88   24   44    0
EOF
