NAME: random_n16_4
COMMENT: Explicit integer matrix TSP
TYPE: TSP
DIMENSION: 16
EDGE_WEIGHT_TYPE: EXPLICIT
EDGE_WEIGHT_FORMAT: FULL_MATRIX
EDGE_WEIGHT_SECTION
    0   61   16   81   79   52   69   88    3   27   35   91   81   98   26   90
   61    0  100   84   19   11   54   57   26   93    4   11   52   87    1    9
   16  100    0   23   14   76    6   76   34   29   70   26   12    4   99   59
   81   84   23    0   51   28   38   96   18   71   55   46   66   40   96   47
   79   19   14   51    0   89   63   67   23    7    1   30   60   21   28   29
   52   11   76   28   89    0    8   83   36   28   87   32    4   93   39   15
   69   54    6   38   63    8    0   21   39   29   83   73   87   31   84   32
   88   57   76   96   67   83   21    0   20   79   34   55   57   39   91   48
    3   26   34   18   23   36   39   20    0   22   36   20   23   39    6   17
   27   93   29   71    7   28   29   79   22    0    7   15   16   66    8   22
   35    4   70   55    1   87   83   34   36    7    0   43   72   33   55   61
   91   11   26   46   30   32   73   55   20   15   43    0    6   87   64   41
   81   52   12   66   60    4   87   57   23   16   72    6    0   89   66   91
   98   87    4   40   21   93   31   39   39   66   33   87   89    0    5    7
   26    1   99   96   28   39   84   91    6    8   55   64   66    5    0   96
   90    9   59   47   29   15   32   48   17   22   61   41   91    7   96    0
EOF
