NAME: random_n12_4
COMMENT: Explicit integer matrix TSP
TYPE: TSP
DIMENSION: 12
EDGE_WEIGHT_TYPE: EXPLICIT
EDGE_WEIGHT_FORMAT: FULL_MATRIX
EDGE_WEIGHT_SECTION
    0   71   41   17   72   92   69   39   65   25   92   98
   71    0   56   22   20   85   14   64   84   29   28   98
   41   56    0   66   72   66   20   61   28    4   10   55
   17   22   66    0    9   17   64   87   21   17    8   90
   72   20   72    9    0   71   38   44   90   44   13   31
   92   85   66   17   71    0   35   34   83    2   74   37
   69   14   20   64   38   35    0   81   18   46   84   56
   39   64   61   87   44   34   81    0   23   26   52   78
   65   84   28   21   90   83   18   23    0   36    4   47
   25   29    4   17   44    2   46   26   36    0   13   37
   92   28   10    8   13   74   84   52    4   13    0   74
   98   98   55   90   31   37   56   78   47   37   74    0
EOF
