NAME: random_n15_1
COMMENT: Explicit integer matrix TSP
TYPE: TSP
DIMENSION: 15
EDGE_WEIGHT_TYPE: EXPLICIT
EDGE_WEIGHT_FORMAT: FULL_MATRIX
EDGE_WEIGHT_SECTION
    0   27    2   67   95    5   21   31    3    8   88   19   89   48   31
   27    0   15   44   60   91   46   36   51   34   45   30   27   46   41
    2   15    0   29   40   94   66   54   30   74   59   54   63   11   60
   67   44   29    0   73   47   57   73   41   89   83   58   52  100    9
   95   60   40   73    0   63    3   26   18   69   23   79   89   93    3
    5   91   94   47   63    0   37   68   64   20   13   15   51    7   10
   21   46   66   57    3   37    0   60   93   72   38   52   65   30   23
   31   36   54   73   26   68   60    0   70   65   46   11   31   40   40
    3   51   30   41   18   64   93   70    0   22   81   41   50   61   44
    8   34   74   89   69   20   72   65   22    0   57   10   97   35   61
   88   45   59   83   23   13   38   46   81   57    0   19   15   87   64
   19   30   54   58   79   15   52   11   41   10   19    0   50   49    2
   89   27   63   52   89   51   65   31   50   97   15   50    0   34   95
   48   46   11  100   93    7   30   40   61   35   87   49   34    0   12
   31   41   60    9    3   10   23   40   44   61   64    2   95   12    0
EOF
