NAME: random_n10_4
COMMENT: Explicit integer matrix TSP
TYPE: TSP
DIMENSION: 10
EDGE_WEIGHT_TYPE: EXPLICIT
EDGE_WEIGHT_FORMAT: FULL_MATRIX
EDGE_WEIGHT_SECTION
    0   59   75   68    5   32   37   86   82   86
   59    0   27   17   98   45   36   96   57    4
   75   27    0   68   95   17    8   83   26   80
   68   17   68    0   91   59    7   23   78   41
    5   98   95   91    0   15   33   42   19   66
   32   45   17   59   15    0   88   67   13   53
   37   36    8    7   33   88    0    7   41   94
   86   96   83   23   42   67    7    0   97   43
   82   57   26   78   19   13   41   97    0   30
   86    4   80   41   66   53   94   43   30    0
EOF
