NAME: random_n16_0
COMMENT: Explicit integer matrix TSP
TYPE: TSP
DIMENSION: 16
EDGE_WEIGHT_TYPE: EXPLICIT
EDGE_WEIGHT_FORMAT: FULL_MATRIX
EDGE_WEIGHT_SECTION
    0   50   98   54    6   34   66   63   52   39   62   46   75   28   65   18
   50    0   37   18   97   13   80   33   69   91   78   19   40   13   94   10
   98   37    0   88   43   61   72   13   46   56   41   79   82   27   71   62
   54   18   88    0   57   67   34    8   71    2   12   93   52   91   86   81
    6   97   43   57    0    1   79   64   43   32   94   42   91    9   25   73
   34   13   61   67    1    0   29   31   19   70   58   12   11   41   66   63
   66   80   72   34   79   29    0   14   39   71   38   91   16   71   43   70
   63   33   13    8   64   31   14    0   27   78   71   76   37   57   12   77
   52   69   46   71   43   19   39   27    0   50   41   74   31   38   24   25
   39   91   56    2   32   70   71   78   50    0   24    5   79   85   34   61
   62   78   41   12   94   58   38   71   41   24    0    9   12   87   97   17
   46   19   79   93   42   12   91   76   74    5    9    0   20    5   11   90
   75   40   82   52   91   11   16   37   31   79   12   20    0   70   88   51
   28   13   27   91    9   41   71   57   38   85   87    5   70    0   91   68
   65   94   71   86   25   66   43   12   24   34   97   11   88   91    0   36
   18   10   62   81   73   63   70   77   25   61   17   90   51   68   36    0
EOF
