NAME: random_n14_1
COMMENT: Explicit integer matrix TSP
TYPE: TSP
DIMENSION: 14
EDGE_WEIGHT_TYPE: EXPLICIT
EDGE_WEIGHT_FORMAT: FULL_MATRIX
EDGE_WEIGHT_SECTION
    0   14   79   90   97   84   68   32   35   95   33   38   94   10
   14    0   85   58   39   60   88   51   51  100   16   34   29   41
   79   85    0   46   34   47   81   81   67   20   21   71   86   85
   90   58   46    0   36   22    2   84    9   16   77   44    4   11
   97   39   34   36    0   36   27   49   52   75   57   78   13   83
   84   60   47   22   36    0   88   15   75   76   82   82   47   24
   68   88   81    2   27   88    0   13   96   63   66   87   25   35
   32   51   81   84   49   15   13    0   58   80   28   63   37   65
   35   51   67    9   52   75   96   58    0   33   14   16   12   36
   95  100   20   16   75   76   63   80   33    0   36   16    4   21
   33   16   21   77   57   82   66   28   14   36    0   95   53   15
   38   34   71   44   78   82   87   63   16   16   95    0   88   68
   94   29   86    4   13   47   25   37   12    4   53   88    0   76
   10   41   85   11   83   24   35   65   36   21   15   68   76    0
EOF
