NAME: random_n11_2
COMMENT: Explicit integer matrix TSP
TYPE: TSP
DIMENSION: 11
EDGE_WEIGHT_TYPE: EXPLICIT
EDGE_WEIGHT_FORMAT: FULL_MATRIX
EDGE_WEIGHT_SECTION
    0   18   32    4   79   58   24   90   16   95   84
   18    0   45   11   30   35    7   41   77   23   71
   32   45    0   88   94   56   91    7   74    3   76
    4   11   88    0   34   40   54   25   24   15   75
   79   30   94   34    0   68   94  100   73    8   90
   58   35   56   40   68    0   42   79   43   34   24
   24    7   91   54   94   42    0   51   40  100   84
   90   41    7   25  100   79   51    0   66   19   36
   16   77   74   24   73   43   40   66    0   35   86
   95   23    3   15    8   34  100   19   35    0   89
   84   71   76   75   90   24   84   36   86   89    0
EOF
