NAME: random_n13_2
COMMENT: Explicit integer matrix TSP
TYPE: TSP
DIMENSION: 13
EDGE_WEIGHT_TYPE: EXPLICIT
EDGE_WEIGHT_FORMAT: FULL_MATRIX
EDGE_WEIGHT_SECTION
    0   96   26   85   27   56   77   70    8   17  100   98   62
   96    0    6   94   88   80   65   22   82   55   32   96   53
   26    6    0   92   26   89    4   86   29   19   17   28   77
   85   94   92    0   62   98   50   47   32   75    4    4   95
   27   88   26   62    0   38   70   69   16   66    6   83    1
   56   80   89   98   38    0   60   77   85   72   41   41   86
   77   65    4   50   70   60    0   55   56   89   26    8   33
   70   22   86   47   69   77   55    0   26   80   50   55   78
    8   82   29   32   16   85   56   26    0   67   20    8   13
   17   55   19   75   66   72   89   80   67    0   10   17   70
  100   32   17    4    6   41   26   50   20   10    0   71   92
   98   96   28    4   83   41    8   55    8   17   71    0  100
   62   53   77   95    1   86   33   78   13   70   92  100    0
EOF
