NAME: random_n13_3
COMMENT: Explicit integer matrix TSP
TYPE: TSP
DIMENSION: 13
EDGE_WEIGHT_TYPE: EXPLICIT
EDGE_WEIGHT_FORMAT: FULL_MATRIX
EDGE_WEIGHT_SECTION
    0   27   34   50    4   25   29   51   94   73    1   83   33
   27    0   87   46   91   23    4   38   87   10   47    2   14
   34   87    0   55   45   55   97   13   51   66   75   39   35
   50   46   55    0   92    9   59   56   33   74   42   73    1
    4   91   45   92    0   93   91    6   84   25   80   80   62
   25   23   55    9   93    0   80   97   82   49   41   37   50
   29    4   97   59   91   80    0   84   45   62   18   68   56
   51   38   13   56    6   97   84    0   10   23   39   87   97
   94   87   51   33   84   82   45   10    0   37   31   89   94
   73   10   66   74   25   49   62   23   37    0   90   13   51
    1   47   75   42   80   41   18   39   31   90    0   94   61
   83    2   39   73   80   37   68   87   89   13   94    0   66
   33   14   35    1   62   50   56   97   94   51   61   66    0
EOF
