NAME: random_n11_1
COMMENT: Explicit integer matrix TSP
TYPE: TSP
DIMENSION: 11
EDGE_WEIGHT_TYPE: EXPLICIT
EDGE_WEIGHT_FORMAT: FULL_MATRIX
EDGE_WEIGHT_SECTION
    0   58   72  100   60   58   66   76   25   24   66
   58    0   61   81   79   24   13   58   39   19   12
   72   61    0   69   89   82    6   77   51   58   84
  100   81   69    0   95   79   84   21   80    2   68
   60   79   89   95    0    9    8    5   25   31   77
   58   24   82   79    9    0    4  100   60   42   57
   66   13    6   84    8    4    0   76   26   67   30
   76   58   77   21    5  100   76    0   82   38   64
   25   39   51   80   25   60   26   82    0    1   85
   24   19   58    2   31   42   67   38    1    0   11
   66   12   84   68   77   57   30   64   85   11    0
EOF
