NAME: random_n10_2
COMMENT: Explicit integer matrix TSP
TYPE: TSP
DIMENSION: 10
EDGE_WEIGHT_TYPE: EXPLICIT
EDGE_WEIGHT_FORMAT: FULL_MATRIX
EDGE_WEIGHT_SECTION
    0   93   88   99   20   34   87   82   13   42
   93    0   74   22    4   53   53   10   14   17
   88   74    0   41   61   75   58   53   27   26
   99   22   41    0   41   81   88   43   43   55
   20    4   61   41    0   12   81   67   63   52
   34   53   75   81   12    0   11   27   74   32
   87   53   58   88   81   11    0    5   26   13
   82   10   53   43   67   27    5    0   11   25
   13   14   27   43   63   74   26   11    0   33
   42   17   26   55   52   32   13   25   33    0
EOF
