NAME: random_n13_4
COMMENT: Explicit integer matrix TSP
TYPE: TSP
DIMENSION: 13
EDGE_WEIGHT_TYPE: EXPLICIT
EDGE_WEIGHT_FORMAT: FULL_MATRIX
EDGE_WEIGHT_SECTION
    0   35    7   93   66   62   48   53    5   18   21   53   24
   35    0   45   57   81    1    5   70   50   57    2   31    9
    7   45    0   21   22   62   30   81   36   63  100   64   54
   93   57   21    0   16    5   80   49   12   74   51   86   47
   66   81   22   16    0   70   17   19   51   67   86   68   91
   62    1   62    5   70    0   23   36   12   42   24   90   55
   48    5   30   80   17   23    0   73   85   92   55   77    4
   53   70   81   49   19   36   73    0   26    1   27   84   93
    5   50   36   12   51   12   85   26    0   68   62   59   18
   18   57   63   74   67   42   92    1   68    0   22   93   16
   21    2  100   51   86   24   55   27   62   22    0   98   24
   53   31   64   86   68   90   77   84   59   93   98    0   12
   24    9   54   47   91   55    4   93   18   16   24   12    0
EOF
