NAME: random_n14_2
COMMENT: Explicit integer matrix TSP
TYPE: TSP
DIMENSION: 14
EDGE_WEIGHT_TYPE: EXPLICIT
EDGE_WEIGHT_FORMAT: FULL_MATRIX
EDGE_WEIGHT_SECTION
    0   15   96   17   70   77   92   23   29   17   82   60   98   54
   15    0   27   28   19   51   21   17   78   25   26    4   53   31
   96   27    0    9   13   54   41   90   17   23   65   67   89   93
   17   28    9    0   85   35   79   30   87   58   17   26    2   99
   70   19   13   85    0   37   82   87   34   11   67   69   36   93
   77   51   54   35   37    0   16   74   54   22   26   48    9    5
   92   21   41   79   82   16    0   55   98   63   48   21   49   33
   23   17   90   30   87   74   55    0   50   65   85   86   23   30
   29   78   17   87   34   54   98   50    0   23   40   99   76   25
   17   25   23   58   11   22   63   65   23    0   96   89   69   54
   82   26   65   17   67   26   48   85   40   96    0    4   29   26
   60    4   67   26   69   48   21   86   99   89    4    0    8   42
   98   53   89    2   36    9   49   23   76   69   29    8    0   46
   54   31   93   99   93    5   33   30   25   54   26   42   46    0
EOF
