NAME: random_n15_0
COMMENT: Explicit integer matrix TSP
TYPE: TSP
DIMENSION: 15
EDGE_WEIGHT_TYPE: EXPLICIT
EDGE_WEIGHT_FORMAT: FULL_MATRIX
EDGE_WEIGHT_SECTION
    0   50   98   54    6   34   66   63   52   39   62   46   75   28   65
   50    0   18   37   18   97   13   80   33   69   91   78   19   40   13
   98   18    0   94   10   88   43   61   72   13   46   56   41   79   82
   54   37   94    0   27   71   62   57   67   34    8   71    2   12   93
    6   18   10   27    0   52   91   86   81    1   79   64   43   32   94
   34   97   88   71   52    0   42   91    9   25   73   29   31   19   70
   66   13   43   62   91   42    0   58   12   11   41   66   63   14   39
   63   80   61   57   86   91   58    0   71   38   91   16   71   43   70
   52   33   72   67   81    9   12   71    0   27   78   71   76   37   57
   39   69   13   34    1   25   11   38   27    0   12   77   50   41   74
   62   91   46    8   79   73   41   91   78   12    0   31   38   24   25
   46   78   56   71   64   29   66   16   71   77   31    0   24    5   79
   75   19   41    2   43   31   63   71   76   50   38   24    0   85   34
   28   40   79   12   32   19   14   43   37   41   24    5   85    0   61
   65   13   82   93   94   70   39   70   57   74   25   79   34   61    0
EOF
