NAME: random_n12_3
COMMENT: Explicit integer matrix TSP
TYPE: TSP
DIMENSION: 12
EDGE_WEIGHT_TYPE: EXPLICIT
EDGE_WEIGHT_FORMAT: FULL_MATRIX
EDGE_WEIGHT_SECTION
    0   43    8    3   37   11    1   65   81   23   32   35
   43    0   94   84   56   47   72   35   70   10   74   53
    8   94    0   63   50   45   97   51   32   51   22   16
    3   84   63    0   66   64   90   98   27   68   38   24
   37   56   50   66    0   63   91   76   42   92   71   22
   11   47   45   64   63    0    1   77   50   64   18   97
    1   72   97   90   91    1    0   28   54   48   27   64
   65   35   51   98   76   77   28    0   94   97   33   79
   81   70   32   27   42   50   54   94    0    5   31   81
   23   10   51   68   92   64   48   97    5    0   65   60
   32   74   22   38   71   18   27   33   31   65    0   84
   35   53   16   24   22   97   64   79   81   60   84    0
EOF
