NAME: random_n12_1
COMMENT: Explicit integer matrix TSP
TYPE: TSP
DIMENSION: 12
EDGE_WEIGHT_TYPE: EXPLICIT
EDGE_WEIGHT_FORMAT: FULL_MATRIX
EDGE_WEIGHT_SECTION
    0   61   35   85   68   86   45   19   49    2   48   62
   61    0   36   83   59   89   77   30   72    1   85   80
   35   36    0   19   57   48   21   44   27    8   74   26
   85   83   19    0   10   66   88   44   88   52   12    3
   68   59   57   10    0    8   85   66   29   12   55   57
   86   89   48   66    8    0   15   85   55   18   70   41
   45   77   21   88   85   15    0   80   72   21   90    7
   19   30   44   44   66   85   80    0   72   22   65   11
   49   72   27   88   29   55   72   72    0   52   78   54
    2    1    8   52   12   18   21   22   52    0   86   77
   48   85   74   12   55   70   90   65   78   86    0   61
   62   80   26    3   57   41    7   11   54   77   61    0
EOF
