NAME: random_n16_1
COMMENT: Explicit integer matrix TSP
TYPE: TSP
DIMENSION: 16
EDGE_WEIGHT_TYPE: EXPLICIT
EDGE_WEIGHT_FORMAT: FULL_MATRIX
EDGE_WEIGHT_SECTION
    0   47   61   62   37   54   30   58    1   53   85   92   34   31   82   29
   47    0    2   38   39   43   86   19   96   78   40    3   29   78   33    3
   61    2    0   20   78   86   81    4   60   59   77   81   91   38   29   40
   62   38   20    0   47   34   54   12   45   64   55   67   83   23   73   38
   37   39   78   47    0   75    6   37   11    1   67   48   31   63   20   40
   54   43   86   34   75    0   39   41   59   59    9   22   90   62   94    2
   30   86   81   54    6   39    0   57   63    2   61   90   16   59   79   11
   58   19    4   12   37   41   57    0   64   84    3   19   91   30   52   48
    1   96   60   45   11   59   63   64    0    5   70    6   85   84   52   78
   53   78   59   64    1   59    2   84    5    0   41   62   66   86   88   84
   85   40   77   55   67    9   61    3   70   41    0   10   30   41   13   91
   92    3   81   67   48   22   90   19    6   62   10    0   12   70   16   32
   34   29   91   83   31   90   16   91   85   66   30   12    0    2   51   81
   31   78   38   23   63   62   59   30   84   86   41   70    2    0    6   15
   82   33   29   73   20   94   79   52   52   88   13   16   51    6    0   95
   29    3   40   38   40    2   11   48   78   84   91   32   81   15   95    0
EOF
