NAME: random_n16_2
COMMENT: Explicit integer matrix TSP
TYPE: TSP
DIMENSION: 16
EDGE_WEIGHT_TYPE: EXPLICIT
EDGE_WEIGHT_FORMAT: FULL_MATRIX
EDGE_WEIGHT_SECTION
    0   10   28   19   39   90   31   64    4   93    5   13   42   66   43    8
   10    0   67   89   61   48   77    1   70   97   17   68    2   63   94   99
   28   67    0   26   37   26   58   11   43   16    5   68   15   94   21   57
   19   89   26    0    3   56    7    5   72   46   30   21   60   40   94   64
   39   61   37    3    0   22   69   95   39   73   74   74   11   99    5   76
   90   48   26   56   22    0   38   30   37   43   11   32   85   52   38   55
   31   77   58    7   69   38    0   90    9   62    2   24   58   21   90   12
   64    1   11    5   95   30   90    0    8   17   85   34    7   71   39   19
    4   70   43   72   39   37    9    8    0   50    8   25   76    5   63    1
   93   97   16   46   73   43   62   17   50    0   65   68   89   42   47   63
    5   17    5   30   74   11    2   85    8   65    0   62   32   80   42   68
   13   68   68   21   74   32   24   34   25   68   62    0   74   66   30   29
   42    2   15   60   11   85   58    7   76   89   32   74    0   50   49   75
   66   63   94   40   99   52   21   71    5   42   80   66   50    0   93   48
   43   94   21   94    5   38   90   39   63   47   42   30   49   93    0   25
    8   99   57   64   76   55   12   19    1   63   68   29   75   48   25    0
EOF
