NAME: random_n15_2
COMMENT: Explicit integer matrix TSP
TYPE: TSP
DIMENSION: 15
EDGE_WEIGHT_TYPE: EXPLICIT
EDGE_WEIGHT_FORMAT: FULL_MATRIX
EDGE_WEIGHT_SECTION
    0   70   38   79    4   80   84   27   33    7   51   49   83   18   11
   70    0   60    1   67   32    4   10   21   77   68   52   84   45   69
   38   60    0    9   52    4   32   73   87   36   98   55   73   13   87
   79    1    9    0   36   82   72   15   79   64   40   17   40   40   33
    4   67   52   36    0   65   11   18   32   90   41   16   99    4   53
   80   32    4   82   65    0   96   65   39   23   68   83   24   61   83
   84    4   32   72   11   96    0   43   66   58   85   43   67   44    9
   27   10   73   15   18   65   43    0    3   84   14   61   63   34   62
   33   21   87   79   32   39   66    3    0   33   75   33   89   87   22
    7   77   36   64   90   23   58   84   33    0   88   24   24   66   37
   51   68   98   40   41   68   85   14   75   88    0   54   86   29   28
   49   52   55   17   16   83   43   61   33   24   54    0   62   48   56
   83   84   73   40   99   24   67   63   89   24   86   62    0   95   80
   18   45   13   40    4   61   44   34   87   66   29   48   95    0   39
   11   69   87   33   53   83    9   62   22   37   28   56   80   39    0
EOF
