NAME: random_n10_3
COMMENT: Explicit integer matrix TSP
TYPE: TSP
DIMENSION: 10
EDGE_WEIGHT_TYPE: EXPLICIT
EDGE_WEIGHT_FORMAT: FULL_MATRIX
EDGE_WEIGHT_SECTION
    0   70   38   79    4   80   84   27   33    7
   70    0   51   49   83   18   11   60    1   67
   38   51    0   32    4   10   21   77   68   52
   79   49   32    0   84   45   69    9   52    4
    4   83    4   84    0   32   73   87   36   98
   80   18   10   45   32    0   55   73   13   87
   84   11   21   69   73   55    0   36   82   72
   27   60   77    9   87   73   36    0   15   79
   33    1   68   52   36   13   82   15    0   64
    7   67   52    4   98   87   72   79   64    0
EOF
