NAME: random_n16_3
COMMENT: Explicit integer matrix TSP
TYPE: TSP
DIMENSION: 16
EDGE_WEIGHT_TYPE: EXPLICIT
EDGE_WEIGHT_FORMAT: FULL_MATRIX
EDGE_WEIGHT_SECTION
    0   71   41   17   72   92   69   39   65   25   92   98   56   22   20   85
   71    0   14   64   84   29   28   98   66   72   66   20   61   28    4   10
   41   14    0   55    9   17   64   87   21   17    8   90   71   38   44   90
   17   64   55    0   44   13   31   35   34   83    2   74   37   81   18   46
   72   84    9   44    0   84   56   23   26   52   78   36    4   47   13   37
   92   29   17   13   84    0   74   38   76   64   90   15  100   15   29   19
   69   28   64   31   56   74    0   43   61   69   85   41   56   15  100    2
   39   98   87   35   23   38   43    0   48   55   54   41    1   75   88   82
   65   66   21   34   26   76   61   48    0   52   61   55   78   34   20   99
   25   72   17   83   52   64   69   55   52    0   48   25   60   73   92   29
   92   66    8    2   78   90   85   54   61   48    0   82   74   22   29   20
   98   20   90   74   36   15   41   41   55   25   82    0   21   36   84   75
   56   61   71   37    4  100   56    1   78   60   74   21    0   94   89   56
   22   28   38   81   47   15   15   75   34   73   22   36   94    0   73   68
   20    4   44   18   13   29  100   88   20   92   29   84   89   73    0   71
   85   10   90   46   37   19    2   82   99   29   20   75   56   68   71    0
EOF
