NAME: random_n15_3
COMMENT: Explicit integer matrix TSP
TYPE: TSP
DIMENSION: 15
EDGE_WEIGHT_TYPE: EXPLICIT
EDGE_WEIGHT_FORMAT: FULL_MATRIX
EDGE_WEIGHT_SECTION
    0   35   54   63   33   11   39   44    3   10   62    2   15   37   16
   35    0   40   96   84    5   80    9   18   35   95   20   28   98   92
   54   40    0   55   10   79   53   19   90    8    5   23   42   33   46
   63   96   55    0  100   93   41   13   53   12    3   97   43   41   50
   33   84   10  100    0   90   96   68   85   69   81   94   80   90   83
   11    5   79   93   90    0   33   76   85    8   64   48   27   45   20
   39   80   53   41   96   33    0   81    3   32   64   92   80   55   38
   44    9   19   13   68   76   81    0   27   54   50   49   19   75   59
    3   18   90   53   85   85    3   27    0   71   12   72   50    8   66
   10   35    8   12   69    8   32   54   71    0   79    4   80   70   85
   62   95    5    3   81   64   64   50   12   79    0   81   67   99   37
    2   20   23   97   94   48   92   49   72    4   81    0   41   39   22
   15   28   42   43   80   27   80   19   50   80   67   41    0   24    2
   37   98   33   41   90   45   55   75    8   70   99   39   24    0   80
   16   92   46   50   83   20   38   59   66   85   37   22    2   80    0
EOF
