NAME: random_n12_2
COMMENT: Explicit integer matrix TSP
TYPE: TSP
DIMENSION: 12
EDGE_WEIGHT_TYPE: EXPLICIT
EDGE_WEIGHT_FORMAT: FULL_MATRIX
EDGE_WEIGHT_SECTION
    0   92   50   75   24   28   22   25   22   86   88   12
   92    0   91   97   20   91   37   93   99    2   57   60
   50   91    0   93   82   15    4   67   22   63   95   57
   75   97   93    0   88   39   64   11   88   98   33   79
   24   20   82   88    0   21   88   42   40   10   70   84
   28   91   15   39   21    0   47   85    5   28   41   44
   22   37    4   64   88   47    0   96    9   40   13   32
   25   93   67   11   42   85   96    0   86   77   20   63
   22   99   22   88   40    5    9   86    0   37   35   72
   86    2   63   98   10   28   40   77   37    0   96   36
   88   57   95   33   70   41   13   20   35   96    0   26
   12   60   57   79   84   44   32   63   72   36   26    0
EOF
