NAME: random_n11_0
COMMENT: Explicit integer matrix TSP
TYPE: TSP
DIMENSION: 11
EDGE_WEIGHT_TYPE: EXPLICIT
EDGE_WEIGHT_FORMAT: FULL_MATRIX
EDGE_WEIGHT_SECTION
    0   50   98   54    6   34   66   63   52   39   62
   50    0   46   75   28   65   18   37   18   97   13
   98   46    0   80   33   69   91   78   19   40   13
   54   75   80    0   94   10   88   43   61   72   13
    6   28   33   94    0   46   56   41   79   82   27
   34   65   69   10   46    0   71   62   57   67   34
   66   18   91   88   56   71    0    8   71    2   12
   63   37   78   43   41   62    8    0   93   52   91
   52   18   19   61   79   57   71   93    0   86   81
   39   97   40   72   82   67    2   52   86    0    1
   62   13   13   13   27   34   12   91   81    1    0
EOF
