NAME: random_n11_4
COMMENT: Explicit integer matrix TSP
TYPE: TSP
DIMENSION: 11
EDGE_WEIGHT_TYPE: EXPLICIT
EDGE_WEIGHT_FORMAT: FULL_MATRIX
EDGE_WEIGHT_SECTION
    0   53   67   70   90   15   23   49   29   38    4
   53    0   29   15   73    2   13   21  100   66   89
   67   29    0   39   89   82   49   76   52   99   89
   70   15   39    0   86   42   46   10   44   37   80
   90   73   89   86    0   21   15   66    9   76   13
   15    2   82   42   21    0   35   41   14   81   38
   23   13   49   46   15   35    0    5   45   50   13
   49   21   76   10   66   41    5    0   62   61   25
   29  100   52   44    9   14   45   62    0   25   17
   38   66   99   37   76   81   50   61   25    0   34
    4   89   89   80   13   38   13   25   17   34    0
EOF
