NAME: random_n10_0
COMMENT: Explicit integer matrix TSP
TYPE: TSP
DIMENSION: 10
EDGE_WEIGHT_TYPE: EXPLICIT
EDGE_WEIGHT_FORMAT: FULL_MATRIX
EDGE_WEIGHT_SECTION
    0   50   98   54    6   34   66   63   52   39
   50    0   62   46   75   28   65   18   37   18
   98   62    0   97   13   80   33   69   91   78
   54   46   97    0   19   40   13   94   10   88
    6   75   13   19    0   43   61   72   13   46
   34   28   80   40   43    0   56   41   79   82
   66   65   33   13   61   56    0   27   71   62
   63   18   69   94   72   41   27    0   57   67
   52   37   91   10   13   79   71   57    0   34
   39   18   78   88   46   82   62   67   34    0
EOF
