NAME: random_n14_0
COMMENT: Explicit integer matrix TSP
TYPE: TSP
DIMENSION: 14
EDGE_WEIGHT_TYPE: EXPLICIT
EDGE_WEIGHT_FORMAT: FULL_MATRIX
EDGE_WEIGHT_SECTION
    0   50   98   54    6   34   66   63   52   39   62   46   75   28
   50    0   65   18   37   18   97   13   80   33   69   91   78   19
   98   65    0   40   13   94   10   88   43   61   72   13   46   56
   54   18   40    0   41   79   82   27   71   62   57   67   34    8
    6   37   13   41    0   71    2   12   93   52   91   86   81    1
   34   18   94   79   71    0   79   64   43   32   94   42   91    9
   66   97   10   82    2   79    0   25   73   29   31   19   70   58
   63   13   88   27   12   64   25    0   12   11   41   66   63   14
   52   80   43   71   93   43   73   12    0   39   71   38   91   16
   39   33   61   62   52   32   29   11   39    0   71   43   70   27
   62   69   72   57   91   94   31   41   71   71    0   78   71   76
   46   91   13   67   86   42   19   66   38   43   78    0   37   57
   75   78   46   34   81   91   70   63   91   70   71   37    0   12
   28   19   56    8    1    9   58   14   16   27   76   57   12    0
EOF
