NAME: random_n12_0
COMMENT: Explicit integer matrix TSP
TYPE: TSP
DIMENSION: 12
EDGE_WEIGHT_TYPE: EXPLICIT
EDGE_WEIGHT_FORMAT: FULL_MATRIX
EDGE_WEIGHT_SECTION
    0   50   98   54    6   34   66   63   52   39   62   46
   50    0   75   28   65   18   37   18   97   13   80   33
   98   75    0   69   91   78   19   40   13   94   10   88
   54   28   69    0   43   61   72   13   46   56   41   79
    6   65   91   43    0   82   27   71   62   57   67   34
   34   18   78   61   82    0    8   71    2   12   93   52
   66   37   19   72   27    8    0   91   86   81    1   79
   63   18   40   13   71   71   91    0   64   43   32   94
   52   97   13   46   62    2   86   64    0   42   91    9
   39   13   94   56   57   12   81   43   42    0   25   73
   62   80   10   41   67   93    1   32   91   25    0   29
   46   33   88   79   34   52   79   94    9   73   29    0
EOF
