NAME: random_n11_3
COMMENT: Explicit integer matrix TSP
TYPE: TSP
DIMENSION: 11
EDGE_WEIGHT_TYPE: EXPLICIT
EDGE_WEIGHT_FORMAT: FULL_MATRIX
EDGE_WEIGHT_SECTION
    0   74   22   81   30   36   62   84   69   68   24
   74    0   84   79   65   42   88   68   62   57   37
   22   84    0   87   82   10   39   53   40   67   64
   81   79   87    0    7   96   78   95   87   55   36
   30   65   82    7    0   41   72   98   88   32   16
   36   42   10   96   41    0    8   41   37   28    9
   62   88   39   78   72    8    0   96   47   16   84
   84   68   53   95   98   41   96    0   42   99   32
   69   62   40   87   88   37   47   42    0   66   35
   68   57   67   55   32   28   16   99   66    0   41
   24   37   64   36   16    9   84   32   35   41    0
EOF
