NAME: random_n15_4
COMMENT: Explicit integer matrix TSP
TYPE: TSP
DIMENSION: 15
EDGE_WEIGHT_TYPE: EXPLICIT
EDGE_WEIGHT_FORMAT: FULL_MATRIX
EDGE_WEIGHT_SECTION
    0   40   37   74   20   34   30   62   60   43    6   12   86   24   20
   40    0   50    6   31   82    2   53   93   22   17   40   80   81   87
   37   50    0   20   66   77   72   76    7   77   73   14   39   20    3
   74    6   20    0   73   29   38   31   70   36    9   29   17   91   33
   20   31   66   73    0   27   94   26   75   83   16   65   41   64   47
   34   82   77   29   27    0   49   12   68   83   13    5    4   72   93
   30    2   72   38   94   49    0   12   11   23   50   89   41   72   72
   62   53   76   31   26   12   12    0   50   95  100   50   70   89   89
   60   93    7   70   75   68   11   50    0   22   44   92   43   59   10
   43   22   77   36   83   83   23   95   22    0   66   90   76   50    4
    6   17   73    9   16   13   50  100   44   66    0   57   33   68   18
   12   40   14   29   65    5   89   50   92   90   57    0   15   29   54
   86   80   39   17   41    4   41   70   43   76   33   15    0   72   12
   24   81   20   91   64   72   72   89   59   50   68   29   72    0   71
   20   87    3   33   47   93   72   89   10    4   18   54   12   71    0
EOF
